20
0 1 0.69 0.3
0 2 0.53 0.38
0 3 0.72 0.25
0 4 0.5 0.2
0 5 0.56 0.24
0 6 0.35 0.33
0 7 0.75 0.32
0 8 0.5 0.4
0 9 0.64 0.3
0 10 0.74 0.4
0 11 0.83 0.42
0 12 0.5 0.32
0 13 0.22 0.16
0 14 0.53 0.28
0 15 0.52 0.25
0 16 0.4 0.32
0 17 0.42 0.41
0 18 0.68 0.24
0 19 0.42 0.16
1 2 0.57 0.31
1 3 0.83 0.17
1 4 0.84 0.3
1 5 0.57 0.26
1 6 0.44 0.36
1 7 0.76 0.34
1 8 0.81 0.23
1 9 0.43 0.24
1 10 0.72 0.29
1 11 0.32 0.22
1 12 0.56 0.22
1 13 0.47 0.14
1 14 0.39 0.13
1 15 0.24 0.08
1 16 0.68 0.37
1 17 0.46 0.27
1 18 0.2 0.09
1 19 0.67 0.22
2 3 0.65 0.31
2 4 0.64 0.18
2 5 0.4 0.24
2 6 0.64 0.41
2 7 0.78 0.39
2 8 0.76 0.2
2 9 0.5 0.23
2 10 0.46 0.18
2 11 0.86 0.16
2 12 0.36 0.21
2 13 0.69 0.34
2 14 0.84 0.18
2 15 0.68 0.27
2 16 0.89 0.06
2 17 0.64 0.32
2 18 0.64 0.26
2 19 0.73 0.4
3 4 0.8 0.15
3 5 0.86 0.2
3 6 0.64 0.32
3 7 0.92 0.25
3 8 0.57 0.2
3 9 0.59 0.12
3 10 0.56 0.22
3 11 0.6 0.2
3 12 0.56 0.1
3 13 0.5 0.17
3 14 0.78 0.24
3 15 0.59 0.24
3 16 0.62 0.27
3 17 0.8 0.26
3 18 0.72 0.25
3 19 0.44 0.09
4 5 0.68 0.32
4 6 0.54 0.4
4 7 0.55 0.24
4 8 0.82 0.26
4 9 0.74 0.2
4 10 0.44 0.3
4 11 0.52 0.32
4 12 0.92 0.22
4 13 0.67 0.16
4 14 0.56 0.32
4 15 0.68 0.25
4 16 0.26 0.12
4 17 0.78 0.26
4 18 0.68 0.24
4 19 0.7 0.24
5 6 0.81 0.32
5 7 0.77 0.36
5 8 0.85 0.2
5 9 0.6 0.12
5 10 0.84 0.22
5 11 0.76 0.2
5 12 0.64 0.1
5 13 0.62 0.28
5 14 0.52 0.27
5 15 0.33 0.18
5 16 0.61 0.3
5 17 0.64 0.26
5 18 0.56 0.19
5 19 0.42 0.2
6 7 0.72 0.26
6 8 0.72 0.32
6 9 0.42 0.2
6 10 0.6 0.3
6 11 0.54 0.32
6 12 0.7 0.22
6 13 0.57 0.46
6 14 0.56 0.34
6 15 0.61 0.36
6 16 0.75 0.35
6 17 0.6 0.38
6 18 0.53 0.36
6 19 0.62 0.4
7 8 0.72 0.32
7 9 0.64 0.36
7 10 0.77 0.46
7 11 0.74 0.45
7 12 0.43 0.35
7 13 0.72 0.24
7 14 0.82 0.21
7 15 0.52 0.3
7 16 0.66 0.36
7 17 0.84 0.35
7 18 0.74 0.29
7 19 0.52 0.16
8 9 0.38 0.12
8 10 0.56 0.22
8 11 0.6 0.18
8 12 0.59 0.1
8 13 0.66 0.25
8 14 0.62 0.24
8 15 0.59 0.15
8 16 0.56 0.14
8 17 0.36 0.26
8 18 0.62 0.16
8 19 0.62 0.29
9 10 0.52 0.1
9 11 0.63 0.12
9 12 0.68 0.02
9 13 0.54 0.26
9 14 0.65 0.25
9 15 0.67 0.16
9 16 0.75 0.26
9 17 0.42 0.18
9 18 0.63 0.17
9 19 0.38 0.2
10 11 0.4 0.22
10 12 0.64 0.12
10 13 0.74 0.31
10 14 0.4 0.28
10 15 0.51 0.21
10 16 0.7 0.24
10 17 0.8 0.28
10 18 0.55 0.2
10 19 0.57 0.3
11 12 0.56 0.1
11 13 0.72 0.34
11 14 0.71 0.33
11 15 0.56 0.24
11 16 0.65 0.22
11 17 0.48 0.26
11 18 0.52 0.25
11 19 0.58 0.29
12 13 0.58 0.24
12 14 0.68 0.23
12 15 0.32 0.14
12 16 0.9 0.24
12 17 0.58 0.16
12 18 0.66 0.15
12 19 0.78 0.19
13 14 0.54 0.19
13 15 0.3 0.1
13 16 0.62 0.28
13 17 0.64 0.31
13 18 0.67 0.11
13 19 0.2 0.08
14 15 0.44 0.09
14 16 0.76 0.24
14 17 0.79 0.14
14 18 0.59 0.08
14 19 0.34 0.27
15 16 0.89 0.29
15 17 0.61 0.21
15 18 0.44 0.01
15 19 0.5 0.18
16 17 0.58 0.26
16 18 0.48 0.3
16 19 0.76 0.36
17 18 0.26 0.2
17 19 0.45 0.35
18 19 0.68 0.19
